(set-logic LIA)
(declare-var c Int)
(declare-var c! Int)
(declare-var conf_0 Int)
(declare-var conf_0! Int)
(declare-var tmp Int)
(declare-var tmp! Int)
(declare-var c_0 Int)
(declare-var c_0! Int)
(declare-var c_1 Int)
(declare-var c_1! Int)
(declare-var c_2 Int)
(declare-var c_2! Int)
(declare-var c_3 Int)
(declare-var c_3! Int)
(declare-var c_4 Int)
(declare-var c_4! Int)
(declare-var c_5 Int)
(declare-var c_5! Int)
(declare-var conf_0_0 Int)
(declare-var conf_0_0! Int)
(declare-var conf_0_1 Int)
(declare-var conf_0_1! Int)
(declare-var conf_0_2 Int)
(declare-var conf_0_2! Int)
(declare-var conf_0_3 Int)
(declare-var conf_0_3! Int)
(declare-var conf_0_4 Int)
(declare-var conf_0_4! Int)
(synth-fun inv-f((parameter0 Int)(parameter1 Int)(parameter2 Int)(parameter3 Int)(parameter4 Int)(parameter5 Int)(parameter6 Int)(parameter7 Int)(parameter8 Int)(parameter9 Int)(parameter10 Int)(parameter11 Int)(parameter12 Int)(parameter13 Int))Bool) 
(constraint (=> (and (= c c_1) (= conf_0 conf_0_0) (= conf_0_0 4) (= c_1 0) )(inv-f c conf_0 tmp c_0 c_1 c_2 c_3 c_4 c_5 conf_0_0 conf_0_1 conf_0_2 conf_0_3 conf_0_4 )))
(constraint (=> (and (inv-f c conf_0 tmp c_0 c_1 c_2 c_3 c_4 c_5 conf_0_0 conf_0_1 conf_0_2 conf_0_3 conf_0_4 ) (or (and (= c_2 c) (= conf_0_1 conf_0) (= c_2 c!) (= conf_0_1 conf_0!) (= c c!) (= conf_0 conf_0!) (= tmp tmp!) ) (and (= c_2 c) (= conf_0_1 conf_0) (not (= c_2 40)) (= c_3 (+ c_2 1 )) (= conf_0_2 926) (= c_4 c_3) (= conf_0_3 conf_0_2) (= c_4 c!) (= conf_0_3 conf_0!) (= tmp tmp!) ) (and (= c_2 c) (= conf_0_1 conf_0) (not (not (= c_2 40))) (= c_4 c_2) (= conf_0_3 conf_0_1) (= c_4 c!) (= conf_0_3 conf_0!) (= tmp tmp!) ) (and (= c_2 c) (= conf_0_1 conf_0) (= c_2 40) (= c_5 1) (= conf_0_4 317) (= c_4 c_5) (= conf_0_3 conf_0_4) (= c_4 c!) (= conf_0_3 conf_0!) (= tmp tmp!) ) (and (= c_2 c) (= conf_0_1 conf_0) (not (= c_2 40)) (= c_4 c_2) (= conf_0_3 conf_0_1) (= c_4 c!) (= conf_0_3 conf_0!) (= tmp tmp!) ) ) )(inv-f c! conf_0! tmp! c_0! c_1! c_2! c_3! c_4! c_5! conf_0_0! conf_0_1! conf_0_2! conf_0_3! conf_0_4! )))
(constraint (=> (inv-f c conf_0 tmp c_0 c_1 c_2 c_3 c_4 c_5 conf_0_0 conf_0_1 conf_0_2 conf_0_3 conf_0_4 )(or (not (and (= c c_2) (= conf_0 conf_0_1) )) (not (and (not (= c_2 40)) (not (>= c_2 0)) )) )))
(check-synth)

